99
3
43
57
48
94
14
29
49
80
9
78
90
45
81
83
32
72
79
6
61
19
87
10
15
74
17
33
58
60
0
42
44
2
51
98
8
73
36
28
85
97
89
1
18
52
35
38
31
69
75
7
23
88
56
20
64
92
25
86
91
84
47
53
24
37
70
93
41
71
66
63
22
5
50
54
13
82
26
27
11
65
77
40
95
96
62
59
68
39
21
67
4
55
16
30
12
34
76
46
